small
0 28 0.44
1 29 0.62
2 33 0.6
3 25 0.59
4 26 0.48
5 29 0.42
6 34 0.69
7 34 0.73
8 28 0.43
9 27 0.51
10 29 0.42
11 33 0.74
12 26 0.61
13 34 0.46
14 30 0.78
medium
0 289 69.16
1 284 35.4
2 280 88.51
3 298 60.33
4 252 25.78
5 297 37.7
6 263 33.07
7 290 45.04
8 292 76.31
9 287 87.44
10 290 32.95
11 264 26.64
12 280 80.8
13 256 89.17
14 293 29.7
large
0 1536 598.94
1 1475 600.4
2 1461 600.5
3 1544 600.53
4 1498 600.74
5 1478 600.49
6 1506 581.65
7 1492 600.46
8 1439 600.79
9 1460 600.25
10 1458 600.53
11 1478 600.0
12 1467 600.04
13 1455 600.97
14 1495 600.14
